words_hard_train/4500.qaiger
aag 185 24 0 1 161
2
4
8
12
16
20
24
28
40
42
50
58
82
90
114
122
146
154
178
186
220
228
326
328
370
6 2 4
10 6 8
14 10 12
18 14 16
22 18 20
26 22 24
30 26 29
32 27 28
34 31 33
36 19 21
38 37 23
44 41 43
46 40 42
48 45 47
52 40 50
54 41 51
56 53 55
60 42 58
62 43 59
64 61 63
66 57 65
68 56 64
70 67 69
72 47 71
74 46 70
76 73 75
78 49 77
80 75 69
84 55 82
86 54 83
88 85 87
92 63 90
94 62 91
96 93 95
98 89 97
100 88 96
102 99 101
104 80 103
106 81 102
108 105 107
110 78 109
112 107 101
116 87 114
118 86 115
120 117 119
124 95 122
126 94 123
128 125 127
130 121 129
132 120 128
134 131 133
136 112 135
138 113 134
140 137 139
142 110 141
144 139 133
148 119 146
150 118 147
152 149 151
156 127 154
158 126 155
160 157 159
162 153 161
164 152 160
166 163 165
168 144 167
170 145 166
172 169 171
174 142 173
176 171 165
180 151 178
182 150 179
184 181 183
188 159 186
190 158 187
192 189 191
194 185 193
196 184 192
198 195 197
200 176 199
202 177 198
204 201 203
206 175 204
208 174 205
210 207 209
212 38 210
214 23 25
216 215 27
218 203 197
222 183 220
224 182 221
226 223 225
230 191 228
232 190 229
234 231 233
236 227 235
238 226 234
240 237 239
242 218 241
244 219 240
246 243 245
248 209 246
250 208 247
252 249 251
254 216 252
256 213 255
258 49 2
260 259 5
262 260 76
264 263 79
266 265 7
268 79 108
270 269 111
272 270 8
274 266 273
276 275 11
278 271 9
280 276 279
282 11 13
284 283 15
286 111 140
288 287 143
290 284 288
292 281 291
294 285 289
296 293 295
298 15 17
300 299 19
302 143 172
304 303 175
306 300 304
308 297 307
310 301 305
312 309 311
314 39 211
316 312 315
318 256 317
320 217 253
322 319 321
324 35 323
330 326 329
332 327 328
334 331 333
336 334 233
338 335 232
340 337 339
342 341 224
344 340 225
346 343 345
348 245 239
350 347 349
352 346 348
354 351 353
356 354 250
358 324 357
360 34 322
362 356 360
364 359 363
366 355 251
368 366 361
370 364 369
i0 2 y1[0]
i1 2 y1[1]
i2 2 y1[2]
i3 2 y1[3]
i4 2 y1[4]
i5 2 y1[5]
i6 2 y1[6]
i7 2 y1[7]
i8 1 x2[0]
i9 1 x1[0]
i10 1 x2[1]
i11 1 x1[1]
i12 1 x2[2]
i13 1 x1[2]
i14 1 x2[3]
i15 1 x1[3]
i16 1 x2[4]
i17 1 x1[4]
i18 1 x2[5]
i19 1 x1[5]
i20 1 x2[6]
i21 1 x1[6]
i22 1 x2[7]
i23 1 x1[7]
o0 bv[0]
c
simplified
  >=
    add
      2 y1
      1
    subtract
      unary minus
        1 x2
      1 x1
