words_hard_train/4500.qaiger.qdimacs
p cnf 185 484
a 89 163 164 41 73 45 77 110 114 61 20 21 93 25 29 57 0
e 1 2 3 4 5 6 7 8 9 10 11 12 13 14 15 16 17 18 19 22 23 24 26 27 28 30 31 32 33 34 35 36 37 38 39 40 42 43 44 46 47 48 49 50 51 52 53 54 55 56 58 59 60 62 63 64 65 66 67 68 69 70 71 72 74 75 76 78 79 80 81 82 83 84 85 86 87 88 90 91 92 94 95 96 97 98 99 100 101 102 103 104 105 106 107 108 109 111 112 113 115 116 117 118 119 120 121 122 123 124 125 126 127 128 129 130 131 132 133 134 135 136 137 138 139 140 141 142 143 144 145 146 147 148 149 150 151 152 153 154 155 156 157 158 159 160 161 162 165 166 167 168 169 170 171 172 173 174 175 176 177 178 179 180 181 182 183 184 185 0
-1 -2 3 0
1 -3 0
2 -3 0
-3 -4 5 0
3 -5 0
4 -5 0
-5 -6 7 0
5 -7 0
6 -7 0
-7 -8 9 0
7 -9 0
8 -9 0
-9 -10 11 0
9 -11 0
10 -11 0
-11 -12 13 0
11 -13 0
12 -13 0
-13 14 15 0
13 -15 0
-14 -15 0
13 -14 16 0
-13 -16 0
14 -16 0
15 16 17 0
-15 -17 0
-16 -17 0
9 10 18 0
-9 -18 0
-10 -18 0
18 11 19 0
-18 -19 0
-11 -19 0
20 21 22 0
-20 -22 0
-21 -22 0
-20 -21 23 0
20 -23 0
21 -23 0
22 23 24 0
-22 -24 0
-23 -24 0
-20 -25 26 0
20 -26 0
25 -26 0
20 25 27 0
-20 -27 0
-25 -27 0
26 27 28 0
-26 -28 0
-27 -28 0
-21 -29 30 0
21 -30 0
29 -30 0
21 29 31 0
-21 -31 0
-29 -31 0
30 31 32 0
-30 -32 0
-31 -32 0
28 32 33 0
-28 -33 0
-32 -33 0
-28 -32 34 0
28 -34 0
32 -34 0
33 34 35 0
-33 -35 0
-34 -35 0
23 35 36 0
-23 -36 0
-35 -36 0
-23 -35 37 0
23 -37 0
35 -37 0
36 37 38 0
-36 -38 0
-37 -38 0
24 38 39 0
-24 -39 0
-38 -39 0
37 34 40 0
-37 -40 0
-34 -40 0
27 -41 42 0
-27 -42 0
41 -42 0
-27 41 43 0
27 -43 0
-41 -43 0
42 43 44 0
-42 -44 0
-43 -44 0
31 -45 46 0
-31 -46 0
45 -46 0
-31 45 47 0
31 -47 0
-45 -47 0
46 47 48 0
-46 -48 0
-47 -48 0
44 48 49 0
-44 -49 0
-48 -49 0
-44 -48 50 0
44 -50 0
48 -50 0
49 50 51 0
-49 -51 0
-50 -51 0
-40 51 52 0
40 -52 0
-51 -52 0
40 -51 53 0
-40 -53 0
51 -53 0
52 53 54 0
-52 -54 0
-53 -54 0
-39 54 55 0
39 -55 0
-54 -55 0
53 50 56 0
-53 -56 0
-50 -56 0
43 -57 58 0
-43 -58 0
57 -58 0
-43 57 59 0
43 -59 0
-57 -59 0
58 59 60 0
-58 -60 0
-59 -60 0
47 -61 62 0
-47 -62 0
61 -62 0
-47 61 63 0
47 -63 0
-61 -63 0
62 63 64 0
-62 -64 0
-63 -64 0
60 64 65 0
-60 -65 0
-64 -65 0
-60 -64 66 0
60 -66 0
64 -66 0
65 66 67 0
-65 -67 0
-66 -67 0
-56 67 68 0
56 -68 0
-67 -68 0
56 -67 69 0
-56 -69 0
67 -69 0
68 69 70 0
-68 -70 0
-69 -70 0
-55 70 71 0
55 -71 0
-70 -71 0
69 66 72 0
-69 -72 0
-66 -72 0
59 -73 74 0
-59 -74 0
73 -74 0
-59 73 75 0
59 -75 0
-73 -75 0
74 75 76 0
-74 -76 0
-75 -76 0
63 -77 78 0
-63 -78 0
77 -78 0
-63 77 79 0
63 -79 0
-77 -79 0
78 79 80 0
-78 -80 0
-79 -80 0
76 80 81 0
-76 -81 0
-80 -81 0
-76 -80 82 0
76 -82 0
80 -82 0
81 82 83 0
-81 -83 0
-82 -83 0
-72 83 84 0
72 -84 0
-83 -84 0
72 -83 85 0
-72 -85 0
83 -85 0
84 85 86 0
-84 -86 0
-85 -86 0
-71 86 87 0
71 -87 0
-86 -87 0
85 82 88 0
-85 -88 0
-82 -88 0
75 -89 90 0
-75 -90 0
89 -90 0
-75 89 91 0
75 -91 0
-89 -91 0
90 91 92 0
-90 -92 0
-91 -92 0
79 -93 94 0
-79 -94 0
93 -94 0
-79 93 95 0
79 -95 0
-93 -95 0
94 95 96 0
-94 -96 0
-95 -96 0
92 96 97 0
-92 -97 0
-96 -97 0
-92 -96 98 0
92 -98 0
96 -98 0
97 98 99 0
-97 -99 0
-98 -99 0
-88 99 100 0
88 -100 0
-99 -100 0
88 -99 101 0
-88 -101 0
99 -101 0
100 101 102 0
-100 -102 0
-101 -102 0
87 -102 103 0
-87 -103 0
102 -103 0
-87 102 104 0
87 -104 0
-102 -104 0
103 104 105 0
-103 -105 0
-104 -105 0
-19 -105 106 0
19 -106 0
105 -106 0
11 12 107 0
-11 -107 0
-12 -107 0
107 13 108 0
-107 -108 0
-13 -108 0
101 98 109 0
-101 -109 0
-98 -109 0
91 -110 111 0
-91 -111 0
110 -111 0
-91 110 112 0
91 -112 0
-110 -112 0
111 112 113 0
-111 -113 0
-112 -113 0
95 -114 115 0
-95 -115 0
114 -115 0
-95 114 116 0
95 -116 0
-114 -116 0
115 116 117 0
-115 -117 0
-116 -117 0
113 117 118 0
-113 -118 0
-117 -118 0
-113 -117 119 0
113 -119 0
117 -119 0
118 119 120 0
-118 -120 0
-119 -120 0
-109 120 121 0
109 -121 0
-120 -121 0
109 -120 122 0
-109 -122 0
120 -122 0
121 122 123 0
-121 -123 0
-122 -123 0
104 -123 124 0
-104 -124 0
123 -124 0
-104 123 125 0
104 -125 0
-123 -125 0
124 125 126 0
-124 -126 0
-125 -126 0
-108 -126 127 0
108 -127 0
126 -127 0
106 127 128 0
-106 -128 0
-127 -128 0
24 -1 129 0
-24 -129 0
1 -129 0
129 2 130 0
-129 -130 0
-2 -130 0
-130 -38 131 0
130 -131 0
38 -131 0
131 39 132 0
-131 -132 0
-39 -132 0
132 3 133 0
-132 -133 0
-3 -133 0
39 -54 134 0
-39 -134 0
54 -134 0
134 55 135 0
-134 -135 0
-55 -135 0
-135 -4 136 0
135 -136 0
4 -136 0
-133 136 137 0
133 -137 0
-136 -137 0
137 5 138 0
-137 -138 0
-5 -138 0
135 4 139 0
-135 -139 0
-4 -139 0
-138 139 140 0
138 -140 0
-139 -140 0
5 6 141 0
-5 -141 0
-6 -141 0
141 7 142 0
-141 -142 0
-7 -142 0
55 -70 143 0
-55 -143 0
70 -143 0
143 71 144 0
-143 -144 0
-71 -144 0
-142 -144 145 0
142 -145 0
144 -145 0
140 145 146 0
-140 -146 0
-145 -146 0
142 144 147 0
-142 -147 0
-144 -147 0
146 147 148 0
-146 -148 0
-147 -148 0
7 8 149 0
-7 -149 0
-8 -149 0
149 9 150 0
-149 -150 0
-9 -150 0
71 -86 151 0
-71 -151 0
86 -151 0
151 87 152 0
-151 -152 0
-87 -152 0
-150 -152 153 0
150 -153 0
152 -153 0
148 153 154 0
-148 -154 0
-153 -154 0
150 152 155 0
-150 -155 0
-152 -155 0
154 155 156 0
-154 -156 0
-155 -156 0
19 105 157 0
-19 -157 0
-105 -157 0
-156 157 158 0
156 -158 0
-157 -158 0
-128 158 159 0
128 -159 0
-158 -159 0
108 126 160 0
-108 -160 0
-126 -160 0
159 160 161 0
-159 -161 0
-160 -161 0
17 161 162 0
-17 -162 0
-161 -162 0
-163 164 165 0
163 -165 0
-164 -165 0
163 -164 166 0
-163 -166 0
164 -166 0
165 166 167 0
-165 -167 0
-166 -167 0
-167 116 168 0
167 -168 0
-116 -168 0
167 -116 169 0
-167 -169 0
116 -169 0
168 169 170 0
-168 -170 0
-169 -170 0
170 -112 171 0
-170 -171 0
112 -171 0
-170 112 172 0
170 -172 0
-112 -172 0
171 172 173 0
-171 -173 0
-172 -173 0
122 119 174 0
-122 -174 0
-119 -174 0
173 174 175 0
-173 -175 0
-174 -175 0
-173 -174 176 0
173 -176 0
174 -176 0
175 176 177 0
-175 -177 0
-176 -177 0
-177 -125 178 0
177 -178 0
125 -178 0
-162 178 179 0
162 -179 0
-178 -179 0
-17 -161 180 0
17 -180 0
161 -180 0
-178 -180 181 0
178 -181 0
180 -181 0
179 181 182 0
-179 -182 0
-181 -182 0
177 125 183 0
-177 -183 0
-125 -183 0
-183 180 184 0
183 -184 0
-180 -184 0
-182 184 185 0
182 -185 0
-184 -185 0
185 0
